9
0 57 65 51 79 58 31 27 99
57 0 61 93 96 63 25 69 77
58 93 0 45 58 94 53 81 41
79 36 28 0 48 79 15 88 79
60 52 35 85 0 84 36 97 65
22 65 24 54 20 0 68 29 65
21 90 90 34 77 18 0 51 92
19 72 60 89 37 89 25 0 75
28 69 94 94 83 59 25 34 0
